************************************************************************
file with basedata            : md347_.bas
initial value random generator: 1249881993
************************************************************************
projects                      :  1
jobs (incl. supersource/sink ):  22
horizon                       :  155
RESOURCES
  - renewable                 :  2   R
  - nonrenewable              :  2   N
  - doubly constrained        :  0   D
************************************************************************
PROJECT INFORMATION:
pronr.  #jobs rel.date duedate tardcost  MPM-Time
    1     20      0       23        0       23
************************************************************************
PRECEDENCE RELATIONS:
jobnr.    #modes  #successors   successors
   1        1          3           2   3   4
   2        3          3           8   9  14
   3        3          3           6  15  18
   4        3          3           5   7  14
   5        3          1          12
   6        3          1           8
   7        3          3           9  11  19
   8        3          3          12  19  21
   9        3          2          10  16
  10        3          2          12  13
  11        3          3          15  17  18
  12        3          1          17
  13        3          2          18  21
  14        3          2          15  17
  15        3          1          16
  16        3          2          20  21
  17        3          1          20
  18        3          1          20
  19        3          1          22
  20        3          1          22
  21        3          1          22
  22        1          0        
************************************************************************
REQUESTS/DURATIONS:
jobnr. mode duration  R 1  R 2  N 1  N 2
------------------------------------------------------------------------
  1      1     0       0    0    0    0
  2      1     3       0    8    8    0
         2     6       8    0    7    0
         3     7       0    8    7    0
  3      1     4       0    2    6    0
         2     5       0    2    0    3
         3    10       6    0    4    0
  4      1     4       0    8    7    0
         2     4       8    0    8    0
         3     8       0    7    5    0
  5      1     1      10    0    0    7
         2     5       5    0    3    0
         3     9       0    3    2    0
  6      1     4       9    0    0    8
         2     6       0    6    7    0
         3     7       2    0    0    7
  7      1     3       6    0    0    9
         2     7       0    8    0    5
         3     9       0    7    1    0
  8      1     8       0    5    6    0
         2    10       1    0    0    7
         3    10       2    0    5    0
  9      1     1       5    0    0    9
         2     8       0    3    0    7
         3     8       0    4    2    0
 10      1     7       0    8    5    0
         2     9       4    0    0    8
         3    10       0    6    5    0
 11      1     3       0    8    9    0
         2     5       5    0    8    0
         3     7       0    6    0    2
 12      1     1       4    0    0    8
         2     5       4    0    0    5
         3     8       3    0    0    1
 13      1     1       0    6   10    0
         2     5       0    5   10    0
         3     6       3    0    0    7
 14      1     4       0    8    7    0
         2     5       0    7    5    0
         3     6       0    7    0    1
 15      1     1       0    4    0    6
         2     2      10    0    7    0
         3     5       6    0    4    0
 16      1     4       7    0    7    0
         2     4       0    7    0    6
         3     6      10    0    0    4
 17      1     2      10    0    0    8
         2     5       9    0    0    8
         3     7       8    0    3    0
 18      1     6       0    8    7    0
         2     7       9    0    0    1
         3     8       0    8    4    0
 19      1     1       6    0    9    0
         2     4       5    0    9    0
         3     4       0    2    0    8
 20      1     1       4    0   10    0
         2     6       0    9    0   10
         3    10       0    9    5    0
 21      1     5       0    3    0    4
         2     9       0    3    0    3
         3    10       0    2    0    3
 22      1     0       0    0    0    0
************************************************************************
RESOURCEAVAILABILITIES:
  R 1  R 2  N 1  N 2
   25   21  115  112
************************************************************************
MAXIMAL LAGS:
from  to  type  delay
    1   12   ES      0
    1    2   ES      0
    2   12   ES      0
    1    3   ES      0
    3   12   ES      0
    1    4   ES      0
    4   12   ES      0
    1    5   ES      0
    5   12   ES      0
    1    6   ES      0
    6   12   ES      0
    1    7   ES      0
    7   12   ES      0
    1    8   ES      0
    8   12   ES      0
    1    9   ES      0
    9   12   ES      0
    1   10   ES      0
   10   12   ES      0
    1   11   ES      0
   11   12   ES      0
    1   12   ES      0
    2    8   SS     -7
    2    8   SE      2
    8    2   SE      0
    2    8   ES      0
    2    8   EE      7
    2    9   SS      4
    2    9   SE     -9
    2    9   ES     10
    2    9   EE      6
    2   14   SS      4
    2   14   SE      3
    2   14   ES      5
    2   14   EE    -11
    3    6   SS      7
    3    6   SE     11
    3    6   ES     -8
    3    6   EE     12
    3   15   SS      3
    3   15   SE    -12
    3   15   ES     -4
    3   15   EE     -1
    3   18   SS     -8
    3   18   SE     -5
    3   18   ES      4
    3   18   EE      4
    4    5   SS      5
    4    5   SE     12
    4    5   ES     -1
    4    5   EE      0
    4    7   SS     -7
    4    7   SE     -8
    4    7   ES     -2
    4    7   EE      5
    4   14   SS     12
    4   14   SE      1
    4   14   ES      1
    4   14   EE    -11
    6    8   SS     -2
    6    8   SE     12
    6    8   ES      6
    6    8   EE      4
    7    9   SS      1
    7    9   SE     12
    7    9   ES      2
    7    9   EE      5
    7   11   SS      2
    7   11   SE     -4
    7   11   ES     -3
    7   11   EE     -7
    7   19   SS     -8
    7   19   SE      3
    7   19   ES     10
    7   19   EE     -2
    8   19   SS      4
    8   19   SE     -2
    8   19   ES     11
    8   19   EE      9
    8   21   SS     -4
    8   21   SE      5
    8   21   ES      8
    8   21   EE     -2
    9   10   SS     11
    9   10   SE      6
    9   10   ES      1
    9   10   EE     -1
    9   16   SS     -2
    9   16   SE     10
    9   16   ES      7
    9   16   EE     -3
   10   13   SS     -7
   10   13   SE      4
   10   13   ES     -8
   10   13   EE     -3
   11   15   SS      7
   11   15   SE     -9
   11   15   ES    -10
   11   15   EE     10
   11   17   SS      1
   11   17   SE     -2
   11   17   ES    -12
   11   17   EE     -8
   11   18   SS    -12
   11   18   SE    -11
   11   18   ES    -11
   11   18   EE     -8
   12   17   SS     -3
   12   17   SE     -1
   12   17   ES      8
   12   17   EE     -5
   13   18   SS      6
   13   18   SE      8
   13   18   ES     -5
   13   18   EE    -10
   13   21   SS     -5
   13   21   SE     -8
   13   21   ES      8
   13   21   EE     -9
   14   15   SS     -2
   14   15   SE     -2
   14   15   ES    -10
   14   15   EE     -6
   14   17   SS    -12
   14   17   SE     -2
   14   17   ES     -2
   14   17   EE      3
   15   16   SS    -11
   15   16   SE      4
   15   16   ES     -6
   15   16   EE      8
   16   20   SS      8
   16   20   SE      1
   16   20   ES      5
   16   20   EE     11
   16   21   SS     -7
   16   21   SE      9
   16   21   ES     -9
   16   21   EE     -3
   17   20   SS     -3
   17   20   SE     -3
   17   20   ES      4
   17   20   EE      4
   18   20   SS      7
   18   20   SE      0
   18   20   ES      0
   18   20   EE      6
   19   22   SS      7
   19   22   SE     10
   19   22   ES      3
   19   22   EE     -8
   20   22   SS      3
   20   22   SE     10
   20   22   ES     -5
   20   22   EE      1
   21   22   SS      2
   21   22   SE      8
   21   22   ES      2
   21   22   EE     11
************************************************************************
